     Program PWSCF v.6.3MaX starts on 20Feb2023 at 14:31:35

     R & G space division:  proc/nbgrp/npool/nimage =       4
     Waiting for input...
     Reading input from standard input

     Current dimensions of program PWSCF are:
     Max number of different atomic species (ntypx) = 10
     Max number of k-points (npk) =  40000
     Max angular momentum in pseudopotentials (lmaxx) =  3
     Message from routine volume:
     axis vectors are left-handed

     Subspace diagonalization in iterative solution of the eigenvalue problem:
     a serial algorithm will be used

     bravais-lattice index     =            0
     lattice parameter (alat)  =       4.6476  a.u.
     unit-cell volume          =     484.8146 (a.u.)^3
     number of atoms/cell      =            2
     number of atomic types    =            1
     number of electrons       =         8.00
     number of Kohn-Sham states=            4
     kinetic-energy cutoff     =      40.0000  Ry
     charge density cutoff     =     160.0000  Ry
     convergence threshold     =      1.0E-08
     mixing beta               =       0.7000
     number of iterations used =            8  plain     mixing
     Exchange-correlation      = PBE ( 1  4  3  4 0 0)
     nstep                     =           50

     celldm(1)=   4.647592  celldm(2)=   0.000000  celldm(3)=   0.000000
     celldm(4)=   0.000000  celldm(5)=   0.000000  celldm(6)=   0.000000

     crystal axes: (cart. coord. in units of alat)
               a(1) = (   0.966024   0.600000   0.000000 )
               a(2) = (   0.966024  -0.600000   0.000000 )
               a(3) = (   0.000000   0.000000   4.166030 )

     reciprocal axes: (cart. coord. in units 2 pi/alat)
               b(1) = (  0.517585  0.833333 -0.000000 )
               b(2) = (  0.517585 -0.833333 -0.000000 )
               b(3) = ( -0.000000 -0.000000  0.240037 )

     PseudoPot. # 1 for C  read from file:
     /q-e-qe-6.3/pseudo/C.pbe-n-rrkjus_psl.1.0.0.UPF
     MD5 check sum: 1fdd950c42eb37d8afe3dd2f8d12311e
     Pseudo is Ultrasoft + core correction, Zval =  4.0
     Generated using "atomic" code by A. Dal Corso v.6.3MaX
     Using radial grid of 1073 points,  4 beta functions with:
                l(1) =   0
                l(2) =   0
                l(3) =   1
                l(4) =   1
     Q(r) pseudized with 0 coefficients

     atomic species   valence    mass     pseudopotential
        C              4.00    12.01100     C ( 1.00)

      4 Sym. Ops. (no inversion) found

   Cartesian axes

     site n.     atom                  positions (alat units)
         1           C   tau(   1) = (   0.0000000   0.0000000   0.0000000  )
         2           C   tau(   2) = (   0.6773520   0.0000000   0.0000000  )

     number of k points=    31
                       cart. coord. in units 2pi/alat
        k(    1) = (   0.0000000   0.0000000   0.0000000), wk =   0.0200000
        k(    2) = (   0.0517585  -0.0833333   0.0000000), wk =   0.0800000
        k(    3) = (   0.1035171  -0.1666667   0.0000000), wk =   0.0800000
        k(    4) = (   0.1552756  -0.2500000   0.0000000), wk =   0.0800000
        k(    5) = (   0.2070342  -0.3333333   0.0000000), wk =   0.0800000
        k(    6) = (  -0.2587927   0.4166667   0.0000000), wk =   0.0400000
        k(    7) = (   0.1035171   0.0000000   0.0000000), wk =   0.0400000
        k(    8) = (   0.1552756  -0.0833333   0.0000000), wk =   0.0800000
        k(    9) = (   0.2070342  -0.1666667   0.0000000), wk =   0.0800000
        k(   10) = (   0.2587927  -0.2500000   0.0000000), wk =   0.0800000
        k(   11) = (  -0.2070342   0.5000000   0.0000000), wk =   0.0800000
        k(   12) = (  -0.1552756   0.4166667   0.0000000), wk =   0.0800000
        k(   13) = (  -0.1035171   0.3333333   0.0000000), wk =   0.0800000
        k(   14) = (  -0.0517585   0.2500000   0.0000000), wk =   0.0800000
        k(   15) = (   0.0000000   0.1666667   0.0000000), wk =   0.0400000
        k(   16) = (   0.2070342   0.0000000   0.0000000), wk =   0.0400000
        k(   17) = (   0.2587927  -0.0833333   0.0000000), wk =   0.0800000
        k(   18) = (   0.3105513  -0.1666667   0.0000000), wk =   0.0800000
        k(   19) = (  -0.1552756   0.5833333   0.0000000), wk =   0.0800000
        k(   20) = (  -0.1035171   0.5000000   0.0000000), wk =   0.0800000
        k(   21) = (  -0.0517585   0.4166667   0.0000000), wk =   0.0800000
        k(   22) = (   0.0000000   0.3333333   0.0000000), wk =   0.0400000
        k(   23) = (   0.3105513   0.0000000   0.0000000), wk =   0.0400000
        k(   24) = (   0.3623098  -0.0833333   0.0000000), wk =   0.0800000
        k(   25) = (  -0.1035171   0.6666667   0.0000000), wk =   0.0800000
        k(   26) = (  -0.0517585   0.5833333   0.0000000), wk =   0.0800000
        k(   27) = (  -0.0000000   0.5000000   0.0000000), wk =   0.0400000
        k(   28) = (   0.4140684   0.0000000   0.0000000), wk =   0.0400000
        k(   29) = (  -0.0517585   0.7500000   0.0000000), wk =   0.0800000
        k(   30) = (   0.0000000   0.6666667   0.0000000), wk =   0.0400000
        k(   31) = (  -0.5175855   0.0000000   0.0000000), wk =   0.0200000

     Check: negative/imaginary core charge=   -0.000016    0.000000

     Initial potential from superposition of free atoms
     Check: negative starting charge=   -0.000544

     starting charge    7.99992, renormalised to    8.00000

     negative rho (up, down):  5.443E-04 0.000E+00
     Starting wfcs are    8 randomized atomic wfcs

     Self-consistent Calculation

     iteration #  1     ecut=    40.00 Ry     beta= 0.70
     Davidson diagonalization with overlap
     ethr =  1.00E-02,  avg # of iterations =  2.0

     Threshold (ethr) on eigenvalues was too large:
     Diagonalizing with lowered threshold

     Davidson diagonalization with overlap
     ethr =  6.31E-04,  avg # of iterations =  1.0

     negative rho (up, down):  8.953E-04 0.000E+00

     total energy              =     -24.67438708 Ry
     Harris-Foulkes estimate   =     -24.69514505 Ry
     estimated scf accuracy    <       0.05013303 Ry

[...]

     End of self-consistent calculation

          k = 0.0000 0.0000 0.0000 (  2095 PWs)   bands (ev):

   -18.5116  -7.3006  -5.9539  -4.3084

[...]

          k =-0.2588 0.4167 0.0000 (  2068 PWs)   bands (ev):

[...]

     highest occupied level (ev):    -2.8361

!    total energy              =     -24.67987731 Ry
     Harris-Foulkes estimate   =     -24.67987731 Ry
     estimated scf accuracy    <          3.9E-10 Ry

     The total energy is the sum of the following terms:

     one-electron contribution =     -69.87969819 Ry
     hartree contribution      =      36.35723121 Ry
     xc contribution           =      -8.69571827 Ry
     ewald contribution        =      17.53830793 Ry

     convergence has been achieved in   7 iterations

[...]

     Forces acting on atoms (cartesian axes, Ry/au):

     atom    1 type  1   force =     0.08749206   -0.00000000    0.00000000
     atom    2 type  1   force =    -0.08749206    0.00000000    0.00000000

     Total force =     0.087492     Total SCF correction =     0.000006

     Computing stress (Cartesian axis) and pressure

     negative rho (up, down):  1.033E-03 0.000E+00
          total   stress  (Ry/bohr**3)                   (kbar)     P= -200.40
  -0.00158625   0.00000000   0.00000000       -233.34      0.00      0.00
   0.00000000  -0.00249066   0.00000000          0.00   -366.39      0.00
  -0.00000000  -0.00000000  -0.00000992         -0.00     -0.00     -1.46

     BFGS Geometry Optimization

     number of scf cycles    =   1
     number of bfgs steps    =   0

     enthalpy new            =     -24.6798773089 Ry

     new trust radius        =       0.2742031932 bohr
     Message from routine volume:
     axis vectors are left-handed
     new conv_thr            =       0.0000000100 Ry

     new unit-cell volume =    436.59811 a.u.^3 (    64.69716 Ang^3 )
     density =      0.61656 g/cm^3

CELL_PARAMETERS (alat=  4.64759245)
   0.927715213   0.562640080   0.000000000
   0.927715213  -0.562640080   0.000000000
   0.000000000   0.000000000   4.166030000

ATOMIC_POSITIONS (alat)
C        0.000000000   0.000000000   0.000000000    0   0   0
C        0.632412124   0.000000000   0.000000000

     Writing output data file Graphene.save/
     Check: negative starting charge=   -0.000544
     NEW-OLD atomic charge density approx. for the potential

     Check: negative/imaginary core charge=   -0.000022    0.000000
     Check: negative starting charge=   -0.000383

     negative rho (up, down):  7.885E-04 0.000E+00
     extrapolated charge    7.11652, renormalised to    8.00000

[...]

     enthalpy old            =     -24.6798773089 Ry
     enthalpy new            =     -24.7810426494 Ry

     CASE: enthalpy_new < enthalpy_old

[...]

     number of scf cycles    =   7
     number of bfgs steps    =   6

     enthalpy old            =     -24.8578959387 Ry
     enthalpy new            =     -24.8578975074 Ry

     CASE: enthalpy_new < enthalpy_old

     new trust radius        =       0.0009832824 bohr
     Message from routine volume:
     axis vectors are left-handed
     new conv_thr            =            1.0E-10 Ry

     new unit-cell volume =    363.93431 a.u.^3 (    53.92950 Ang^3 )
     density =      0.73966 g/cm^3

[...]

ATOMIC_POSITIONS (alat)
C        0.000000000   0.000000000   0.000000000    0   0   0
C        0.578740692   0.000000000   0.000000000

     Writing output data file Graphene.save/
     Check: negative starting charge=   -0.000211
     NEW-OLD atomic charge density approx. for the potential

     Check: negative/imaginary core charge=   -0.000030    0.000000
     Check: negative starting charge=   -0.000211

     negative rho (up, down):  6.201E-04 0.000E+00
     extrapolated charge    8.00081, renormalised to    8.00000

[...]

     Threshold (ethr) on eigenvalues was too large:
     Diagonalizing with lowered threshold

     Davidson diagonalization with overlap
     ethr =  1.80E-09,  avg # of iterations =  2.1

[...]

     Message from routine volume:
     axis vectors are left-handed

     bfgs converged in   8 scf cycles and   7 bfgs steps
     (criteria: energy <  1.0E-04 Ry, force <  1.0E-03Ry/Bohr, cell <  5.0E-01kbar)

     End of BFGS Geometry Optimization

     Final enthalpy =     -24.8578979456 Ry
Begin final coordinates
     new unit-cell volume =    363.93431 a.u.^3 (    53.92950 Ang^3 )
     density =      0.73966 g/cm^3

CELL_PARAMETERS (alat=  4.64759245)
   0.868049781   0.501235556   0.000000000
   0.868049781  -0.501235556   0.000000000
   0.000000000   0.000000000   4.166030000

ATOMIC_POSITIONS (alat)
C        0.000000000   0.000000000   0.000000000    0   0   0
C        0.578740692   0.000000000   0.000000000
End final coordinates

     Writing output data file Graphene.save/

     A final scf calculation at the relaxed structure.
     The G-vectors are recalculated for the final unit cell
     Results may differ from those at the preceding step.

     bravais-lattice index     =            0
     lattice parameter (alat)  =       4.6476  a.u.
     unit-cell volume          =     363.9343 (a.u.)^3
     number of atoms/cell      =            2
     number of atomic types    =            1
     number of electrons       =         8.00
     number of Kohn-Sham states=            4
     kinetic-energy cutoff     =      40.0000  Ry
     charge density cutoff     =     160.0000  Ry
     convergence threshold     =      1.0E-10
     mixing beta               =       0.7000
     number of iterations used =            8  plain     mixing
     Exchange-correlation      = PBE ( 1  4  3  4 0 0)

     celldm(1)=   4.647592  celldm(2)=   0.000000  celldm(3)=   0.000000
     celldm(4)=   0.000000  celldm(5)=   0.000000  celldm(6)=   0.000000

     crystal axes: (cart. coord. in units of alat)
               a(1) = (   0.868050   0.501236   0.000000 )
               a(2) = (   0.868050  -0.501236   0.000000 )
               a(3) = (   0.000000   0.000000   4.166030 )

     reciprocal axes: (cart. coord. in units 2 pi/alat)
               b(1) = (  0.576004  0.997535 -0.000000 )
               b(2) = (  0.576004 -0.997535 -0.000000 )
               b(3) = ( -0.000000 -0.000000  0.240037 )

     PseudoPot. # 1 for C  read from file:
     /q-e-qe-6.3/pseudo/C.pbe-n-rrkjus_psl.1.0.0.UPF
     MD5 check sum: 1fdd950c42eb37d8afe3dd2f8d12311e
     Pseudo is Ultrasoft + core correction, Zval =  4.0
     Generated using "atomic" code by A. Dal Corso v.6.3MaX
     Using radial grid of 1073 points,  4 beta functions with:
                l(1) =   0
                l(2) =   0
                l(3) =   1
                l(4) =   1
     Q(r) pseudized with 0 coefficients

     atomic species   valence    mass     pseudopotential
        C              4.00    12.01100     C ( 1.00)

      4 Sym. Ops. (no inversion) found

   Cartesian axes

     site n.     atom                  positions (alat units)
         1           C   tau(   1) = (   0.0000000   0.0000000   0.0000000  )
         2           C   tau(   2) = (   0.5787407   0.0000000   0.0000000  )

     number of k points=    31
                       cart. coord. in units 2pi/alat
        k(    1) = (   0.0000000   0.0000000   0.0000000), wk =   0.0200000
        k(    2) = (   0.0576004  -0.0997535   0.0000000), wk =   0.0800000
        k(    3) = (   0.1152008  -0.1995070   0.0000000), wk =   0.0800000
        k(    4) = (   0.1728011  -0.2992605   0.0000000), wk =   0.0800000
        k(    5) = (   0.2304015  -0.3990140   0.0000000), wk =   0.0800000
        k(    6) = (  -0.2880019   0.4987675   0.0000000), wk =   0.0400000
        k(    7) = (   0.1152008   0.0000000   0.0000000), wk =   0.0400000
        k(    8) = (   0.1728011  -0.0997535   0.0000000), wk =   0.0800000
        k(    9) = (   0.2304015  -0.1995070   0.0000000), wk =   0.0800000
        k(   10) = (   0.2880019  -0.2992605   0.0000000), wk =   0.0800000
        k(   11) = (  -0.2304015   0.5985210   0.0000000), wk =   0.0800000
        k(   12) = (  -0.1728011   0.4987675   0.0000000), wk =   0.0800000
        k(   13) = (  -0.1152008   0.3990140   0.0000000), wk =   0.0800000
        k(   14) = (  -0.0576004   0.2992605   0.0000000), wk =   0.0800000
        k(   15) = (   0.0000000   0.1995070   0.0000000), wk =   0.0400000
        k(   16) = (   0.2304015   0.0000000   0.0000000), wk =   0.0400000
        k(   17) = (   0.2880019  -0.0997535   0.0000000), wk =   0.0800000
        k(   18) = (   0.3456023  -0.1995070   0.0000000), wk =   0.0800000
        k(   19) = (  -0.1728011   0.6982745   0.0000000), wk =   0.0800000
        k(   20) = (  -0.1152008   0.5985210   0.0000000), wk =   0.0800000
        k(   21) = (  -0.0576004   0.4987675   0.0000000), wk =   0.0800000
        k(   22) = (   0.0000000   0.3990140   0.0000000), wk =   0.0400000
        k(   23) = (   0.3456023   0.0000000   0.0000000), wk =   0.0400000
        k(   24) = (   0.4032027  -0.0997535   0.0000000), wk =   0.0800000
        k(   25) = (  -0.1152008   0.7980280   0.0000000), wk =   0.0800000
        k(   26) = (  -0.0576004   0.6982745   0.0000000), wk =   0.0800000
        k(   27) = (   0.0000000   0.5985210   0.0000000), wk =   0.0400000
        k(   28) = (   0.4608031   0.0000000   0.0000000), wk =   0.0400000
        k(   29) = (  -0.0576004   0.8977815   0.0000000), wk =   0.0800000
        k(   30) = (   0.0000000   0.7980280   0.0000000), wk =   0.0400000
        k(   31) = (  -0.5760038   0.0000000   0.0000000), wk =   0.0200000

     Check: negative/imaginary core charge=   -0.000019    0.000000

     Initial potential from superposition of free atoms
     Check: negative starting charge=   -0.000475

     starting charge    7.99992, renormalised to    8.00000

     negative rho (up, down):  4.753E-04 0.000E+00
     Starting wfcs are    8 randomized atomic wfcs

     Self-consistent Calculation

[...]

     total energy              =     -24.85695982 Ry
     Harris-Foulkes estimate   =     -24.85695982 Ry
     estimated scf accuracy    <          7.9E-09 Ry

     iteration #  7     ecut=    40.00 Ry     beta= 0.70
     Davidson diagonalization with overlap
     ethr =  9.93E-11,  avg # of iterations =  2.5

[...]

     End of self-consistent calculation

[...]

          k = 0.0000 0.7980 0.0000 (  1544 PWs)   bands (ev):

[...]

          k =-0.5760 0.0000 0.0000 (  1564 PWs)   bands (ev):

   -14.8360 -13.8089  -7.0060  -2.9116

     highest occupied level (ev):    -1.5738

!    total energy              =     -24.85695982 Ry
     Harris-Foulkes estimate   =     -24.85695982 Ry
     estimated scf accuracy    <          7.7E-11 Ry

     The total energy is the sum of the following terms:

     one-electron contribution =     -93.80093650 Ry
     hartree contribution      =      48.71659492 Ry
     xc contribution           =      -9.27615293 Ry
     ewald contribution        =      29.50353470 Ry

     convergence has been achieved in   7 iterations

     negative rho (up, down):  1.259E-03 0.000E+00

     Forces acting on atoms (cartesian axes, Ry/au):

     atom    1 type  1   force =     0.00014906    0.00000000    0.00000000
     atom    2 type  1   force =    -0.00014906    0.00000000    0.00000000

     Total force =     0.000149     Total SCF correction =     0.000001

     Computing stress (Cartesian axis) and pressure

     negative rho (up, down):  1.259E-03 0.000E+00
          total   stress  (Ry/bohr**3)                   (kbar)     P=   -2.40
  -0.00001584   0.00000000   0.00000000         -2.33      0.00      0.00
   0.00000000  -0.00001812   0.00000000          0.00     -2.67      0.00
   0.00000000   0.00000000  -0.00001506          0.00      0.00     -2.22

     Writing output data file Graphene.save/

     General routines

     Parallel routines

   This run was terminated on:  14:32:11  20Feb2023

   JOB DONE.